c FILE /home/rafael/Documents/HappySet/MIHS/inputs/happygen/output/graph_d_regular_k4_p0.3_v50_20241127_082616.txt
c SOURCE This is a d-regular graph formed for the happy graph colouring problem.
c DESCRIPTION It was generated using the problem generator of Rhyd Lewis
c
c GRAPH STATS
c Seed                             = 471874777
c Number of Nodes                  = 50
c Number of colours k              = 4
c Number of pre-assignments        = 15
c Degree of all vertices           = 6
c Density                          = 0.122449
c 
c The degrees of nodes 1 to 50, respectively, are as follows 
c [6, 6, 6, 6, 6, 6, 6, 6, 6, 6, 6, 6, 6, 6, 6, 6, 6, 6, 6, 6, 6, 6, 6, 6, 6, 6, 
c  6, 6, 6, 6, 6, 6, 6, 6, 6, 6, 6, 6, 6, 6, 6, 6, 6, 6, 6, 6, 6, 6, 6, 6] 
c  
p edge 50 150 4
e 1 4
e 1 17
e 1 24
e 1 28
e 1 30
e 1 49
e 2 7
e 2 16
e 2 18
e 2 19
e 2 27
e 2 50
e 3 9
e 3 15
e 3 20
e 3 38
e 3 42
e 3 50
e 4 5
e 4 14
e 4 22
e 4 24
e 4 31
e 5 14
e 5 16
e 5 21
e 5 40
e 5 49
e 6 17
e 6 18
e 6 25
e 6 26
e 6 41
e 6 42
e 7 17
e 7 23
e 7 24
e 7 38
e 7 41
e 8 12
e 8 27
e 8 31
e 8 32
e 8 40
e 8 49
e 9 17
e 9 19
e 9 27
e 9 31
e 9 47
e 10 13
e 10 22
e 10 28
e 10 32
e 10 37
e 10 46
e 11 18
e 11 20
e 11 33
e 11 42
e 11 43
e 11 47
e 12 31
e 12 39
e 12 40
e 12 46
e 12 49
e 13 14
e 13 24
e 13 30
e 13 35
e 13 40
e 14 23
e 14 29
e 14 36
e 15 23
e 15 33
e 15 34
e 15 36
e 15 48
e 16 20
e 16 22
e 16 23
e 16 29
e 17 18
e 17 21
e 18 41
e 18 47
e 19 36
e 19 37
e 19 40
e 19 43
e 20 22
e 20 32
e 20 48
e 21 27
e 21 39
e 21 47
e 21 50
e 22 26
e 22 38
e 23 25
e 23 26
e 24 30
e 24 45
e 25 37
e 25 39
e 25 44
e 25 46
e 26 33
e 26 35
e 26 42
e 27 39
e 27 45
e 28 30
e 28 33
e 28 47
e 28 48
e 29 33
e 29 41
e 29 44
e 29 49
e 30 36
e 30 37
e 31 39
e 31 41
e 32 35
e 32 36
e 32 44
e 33 35
e 34 38
e 34 39
e 34 43
e 34 44
e 34 49
e 35 48
e 35 50
e 36 42
e 37 45
e 37 46
e 38 42
e 38 46
e 40 43
e 41 43
e 43 50
e 44 45
e 44 48
e 45 46
e 45 48
e 47 50
n 1 4
n 3 1
n 7 4
n 10 3
n 14 3
n 16 2
n 17 4
n 19 2
n 24 4
n 27 4
n 32 3
n 33 3
n 42 1
n 46 3
n 47 2
